% demand
num_movements = 17;
loading_factor = [1450, 1650, 1950, 1850, 1750, 1200, 1650, 800, 1050, 1050, 1350, 1100, 1400, 1200, 1200, 800, 1050];
pickup_time = [0, 0, 0, 0, 3, 5, 7, 7, 7, 7, 7, 7, 9, 9, 9, 9, 11];
delivery_time = [5, 4, 7, 3, 5, 6, 9, 9, 9, 12, 12, 9, 10, 10, 11, 12, 12];

% transporter definition
total_capacity = 7000;
num_decks = 3;
capacity = [3000, 1000, 3000];

% ways out of decks
num_ways_out = 1;
paths_out = array3d(decks, ways_out, decks, [
% ways out of deck d1
2, 3, 0, 

% ways out of deck d2
3, 0, 0, 

% ways out of deck d3
0, 0, 0,	

]);

